objective value:                                  -87
t_x4                                                1 	(obj:-100)
t_y4_185                                            1 	(obj:1)
t_y4_160                                            1 	(obj:1)
t_y4_127                                            1 	(obj:1)
t_y4_55                                             1 	(obj:1)
t_y4_198                                            1 	(obj:1)
t_y4_179                                            1 	(obj:1)
t_y4_134                                            1 	(obj:1)
t_y4_210                                            1 	(obj:1)
t_y4_142                                            1 	(obj:1)
t_y4_47                                             1 	(obj:1)
t_y4_124                                            1 	(obj:1)
t_y4_70                                             1 	(obj:1)
t_y4_239                                            1 	(obj:1)
